# Solution for model r5_t27_m6_6
# Finished Task: 25 / 27
# Makespan: 739.0, Total Distance: 1453.0, Total Time: 0.4102
# R O S F
0 0 5 0.0 0.0
1 1 23 0.0 0.0
2 2 27 0.0 0.0
3 3 8 0.0 0.0
4 4 11 0.0 0.0
5 0 20 395.0 415.0
6 2 19 467.0 504.0
7 4 15 489.0 520.0
8 3 10 121.0 149.0
9 -1 -1 -1.0 -1.0
10 3 29 230.0 258.0
11 4 12 119.0 156.0
12 4 26 264.0 303.0
13 1 -1 706.0 732.0
14 0 31 586.0 609.0
15 4 18 594.0 632.0
16 3 24 445.0 479.0
17 -1 -1 -1.0 -1.0
18 4 -1 713.0 738.0
19 2 28 546.0 576.0
20 0 14 514.0 553.0
21 1 30 555.0 575.0
22 3 25 550.0 578.0
23 1 21 345.0 368.0
24 3 22 479.0 517.0
25 3 -1 628.0 648.0
26 4 7 445.0 470.0
27 2 6 373.0 403.0
28 2 -1 663.0 691.0
29 3 16 377.0 405.0
30 1 13 608.0 630.0
31 0 -1 713.0 739.0
